33D32945 STP File, STP Format Version 1.0

SECTION Comment
Name    "i160-043"
Creator "Cees Duin"
Remark  "Incidence graph"
END

SECTION Graph
Nodes 160
Edges 2544
E 1 5 296
E 1 8 199
E 1 14 194
E 1 15 206
E 1 23 200
E 1 25 209
E 1 27 198
E 1 30 192
E 1 31 199
E 1 33 193
E 1 35 200
E 1 38 200
E 1 41 197
E 1 48 207
E 1 51 205
E 1 53 204
E 1 57 196
E 1 63 206
E 1 65 204
E 1 80 198
E 1 85 189
E 1 86 202
E 1 87 201
E 1 89 196
E 1 90 193
E 1 95 208
E 1 97 199
E 1 104 202
E 1 106 195
E 1 107 198
E 1 118 209
E 1 122 202
E 1 124 194
E 1 131 202
E 1 137 200
E 1 140 206
E 1 144 204
E 1 148 201
E 1 153 203
E 1 155 204
E 1 156 200
E 2 6 294
E 2 7 290
E 2 8 194
E 2 12 208
E 2 14 195
E 2 22 198
E 2 27 197
E 2 35 203
E 2 36 206
E 2 40 202
E 2 47 203
E 2 53 204
E 2 54 207
E 2 58 191
E 2 66 194
E 2 69 198
E 2 80 207
E 2 82 195
E 2 86 195
E 2 89 198
E 2 90 197
E 2 112 205
E 2 116 200
E 2 120 203
E 2 130 206
E 2 131 195
E 2 133 199
E 2 136 206
E 2 142 200
E 2 146 196
E 2 147 201
E 2 155 200
E 2 160 207
E 3 6 301
E 3 7 306
E 3 11 192
E 3 17 203
E 3 21 197
E 3 24 199
E 3 32 193
E 3 33 198
E 3 36 202
E 3 39 207
E 3 41 191
E 3 43 193
E 3 46 193
E 3 48 197
E 3 55 198
E 3 62 198
E 3 65 206
E 3 71 194
E 3 74 212
E 3 76 193
E 3 89 205
E 3 90 199
E 3 92 194
E 3 109 206
E 3 111 204
E 3 113 192
E 3 119 206
E 3 121 201
E 3 132 192
E 3 147 201
E 3 149 195
E 3 153 199
E 3 159 201
E 4 6 298
E 4 8 204
E 4 9 192
E 4 19 193
E 4 22 198
E 4 37 193
E 4 43 195
E 4 47 196
E 4 52 195
E 4 61 200
E 4 62 200
E 4 63 192
E 4 70 200
E 4 79 203
E 4 81 206
E 4 85 205
E 4 89 192
E 4 108 193
E 4 109 200
E 4 118 203
E 4 121 201
E 4 123 202
E 4 129 197
E 4 136 202
E 4 138 191
E 4 147 205
E 4 151 205
E 4 153 195
E 4 154 197
E 4 158 200
E 4 159 202
E 5 6 301
E 5 8 204
E 5 15 205
E 5 18 197
E 5 19 194
E 5 32 196
E 5 42 203
E 5 49 201
E 5 52 204
E 5 55 210
E 5 63 198
E 5 72 197
E 5 77 193
E 5 84 194
E 5 85 198
E 5 91 205
E 5 94 199
E 5 103 204
E 5 108 193
E 5 114 203
E 5 118 196
E 5 120 197
E 5 132 204
E 5 140 198
E 5 141 206
E 5 142 204
E 5 143 202
E 5 152 194
E 5 153 200
E 6 7 297
E 6 10 188
E 6 15 194
E 6 19 203
E 6 22 195
E 6 24 194
E 6 27 202
E 6 29 196
E 6 31 198
E 6 32 193
E 6 37 206
E 6 38 202
E 6 44 196
E 6 45 204
E 6 50 197
E 6 69 206
E 6 81 204
E 6 82 200
E 6 84 196
E 6 89 188
E 6 91 197
E 6 96 196
E 6 97 200
E 6 98 195
E 6 106 197
E 6 111 195
E 6 112 200
E 6 114 198
E 6 118 196
E 6 124 203
E 6 131 201
E 6 134 201
E 6 135 202
E 6 136 204
E 6 139 209
E 6 140 199
E 6 144 201
E 6 157 196
E 6 159 202
E 7 9 202
E 7 26 198
E 7 30 187
E 7 37 195
E 7 38 197
E 7 39 191
E 7 42 203
E 7 43 198
E 7 45 201
E 7 46 201
E 7 50 203
E 7 51 209
E 7 56 198
E 7 76 207
E 7 98 195
E 7 100 195
E 7 102 207
E 7 108 197
E 7 110 205
E 7 119 196
E 7 124 207
E 7 130 207
E 7 135 205
E 7 138 198
E 7 149 195
E 7 152 198
E 7 154 198
E 7 155 200
E 7 160 202
E 8 11 97
E 8 14 107
E 8 15 102
E 8 22 97
E 8 28 107
E 8 30 101
E 8 32 96
E 8 39 98
E 8 58 98
E 8 63 94
E 8 68 96
E 8 75 89
E 8 81 102
E 8 82 100
E 8 84 98
E 8 85 105
E 8 95 104
E 8 97 83
E 8 102 98
E 8 103 89
E 8 110 100
E 8 116 92
E 8 119 100
E 8 120 98
E 8 121 104
E 8 122 106
E 8 123 94
E 8 127 91
E 8 135 97
E 8 138 94
E 8 143 101
E 8 146 102
E 8 148 99
E 8 156 107
E 8 158 94
E 9 16 111
E 9 18 101
E 9 25 100
E 9 28 103
E 9 32 100
E 9 34 99
E 9 41 111
E 9 42 99
E 9 54 98
E 9 59 100
E 9 62 99
E 9 82 91
E 9 94 100
E 9 96 99
E 9 99 89
E 9 111 102
E 9 112 98
E 9 117 111
E 9 119 105
E 9 131 106
E 9 132 101
E 9 134 105
E 9 137 96
E 9 138 99
E 9 139 96
E 9 141 92
E 9 142 109
E 9 143 97
E 9 158 100
E 10 12 109
E 10 32 101
E 10 37 109
E 10 39 95
E 10 46 96
E 10 58 95
E 10 60 113
E 10 62 105
E 10 87 102
E 10 91 100
E 10 94 96
E 10 101 98
E 10 105 101
E 10 109 111
E 10 116 97
E 10 123 99
E 10 128 112
E 10 129 97
E 10 133 105
E 10 134 94
E 10 146 107
E 10 152 106
E 10 153 101
E 10 155 101
E 10 158 98
E 11 17 91
E 11 18 101
E 11 20 97
E 11 21 97
E 11 24 101
E 11 29 101
E 11 30 94
E 11 32 97
E 11 37 101
E 11 39 101
E 11 45 93
E 11 47 98
E 11 50 100
E 11 51 92
E 11 62 91
E 11 64 103
E 11 74 98
E 11 75 102
E 11 83 101
E 11 84 95
E 11 85 100
E 11 95 108
E 11 102 107
E 11 105 103
E 11 106 103
E 11 114 100
E 11 117 96
E 11 119 96
E 11 124 97
E 11 125 97
E 11 129 95
E 11 133 98
E 11 155 101
E 12 15 102
E 12 18 104
E 12 36 99
E 12 43 93
E 12 46 94
E 12 53 99
E 12 54 96
E 12 55 104
E 12 68 85
E 12 71 100
E 12 72 107
E 12 81 101
E 12 83 101
E 12 95 97
E 12 105 101
E 12 107 94
E 12 109 94
E 12 120 109
E 12 136 96
E 12 143 98
E 12 144 103
E 13 19 100
E 13 30 93
E 13 31 103
E 13 35 102
E 13 36 104
E 13 41 96
E 13 43 94
E 13 47 99
E 13 68 98
E 13 69 94
E 13 87 104
E 13 89 97
E 13 92 92
E 13 96 103
E 13 97 113
E 13 98 92
E 13 108 99
E 13 112 107
E 13 118 100
E 13 120 105
E 13 123 98
E 13 131 103
E 13 136 101
E 13 139 103
E 13 143 106
E 13 146 100
E 13 147 109
E 13 153 104
E 13 157 98
E 13 159 101
E 14 30 100
E 14 37 106
E 14 40 90
E 14 42 105
E 14 54 89
E 14 55 105
E 14 56 103
E 14 57 103
E 14 58 106
E 14 64 103
E 14 66 100
E 14 70 93
E 14 73 99
E 14 75 99
E 14 92 103
E 14 107 100
E 14 110 104
E 14 115 99
E 14 116 91
E 14 118 90
E 14 123 96
E 14 126 92
E 14 127 100
E 14 134 102
E 14 136 97
E 14 138 92
E 14 139 96
E 14 140 106
E 14 151 105
E 14 153 102
E 14 154 93
E 15 18 102
E 15 24 101
E 15 27 103
E 15 35 104
E 15 38 98
E 15 43 93
E 15 49 99
E 15 52 100
E 15 65 100
E 15 66 102
E 15 72 97
E 15 74 95
E 15 75 100
E 15 81 102
E 15 83 105
E 15 97 108
E 15 108 94
E 15 113 95
E 15 121 102
E 15 123 100
E 15 126 103
E 15 127 97
E 15 132 101
E 15 133 97
E 15 136 105
E 15 144 104
E 15 152 104
E 15 153 96
E 15 154 99
E 15 156 92
E 16 21 99
E 16 22 101
E 16 27 103
E 16 56 101
E 16 60 105
E 16 64 94
E 16 65 96
E 16 71 103
E 16 81 102
E 16 89 97
E 16 95 98
E 16 99 96
E 16 103 106
E 16 105 104
E 16 106 101
E 16 108 100
E 16 110 104
E 16 112 99
E 16 115 99
E 16 116 97
E 16 118 99
E 16 120 95
E 16 122 90
E 16 125 97
E 16 131 102
E 16 133 100
E 16 148 94
E 16 149 91
E 16 151 104
E 16 152 101
E 16 160 98
E 17 18 101
E 17 22 100
E 17 23 93
E 17 24 107
E 17 25 93
E 17 29 96
E 17 31 93
E 17 35 93
E 17 44 94
E 17 47 97
E 17 50 103
E 17 53 94
E 17 54 100
E 17 68 99
E 17 71 98
E 17 76 97
E 17 77 100
E 17 86 95
E 17 96 105
E 17 100 101
E 17 101 102
E 17 108 110
E 17 111 93
E 17 113 97
E 17 116 94
E 17 122 103
E 17 129 96
E 17 142 93
E 17 144 95
E 17 147 104
E 17 149 91
E 17 151 103
E 17 160 103
E 18 22 99
E 18 23 102
E 18 27 102
E 18 33 94
E 18 35 101
E 18 43 101
E 18 48 104
E 18 50 102
E 18 56 106
E 18 61 98
E 18 62 97
E 18 71 99
E 18 73 89
E 18 83 100
E 18 88 101
E 18 96 92
E 18 101 96
E 18 107 108
E 18 113 100
E 18 115 104
E 18 125 101
E 18 142 94
E 18 143 95
E 18 144 94
E 18 151 96
E 19 28 97
E 19 31 103
E 19 32 103
E 19 39 94
E 19 40 90
E 19 48 101
E 19 58 101
E 19 61 98
E 19 66 99
E 19 73 106
E 19 77 105
E 19 79 99
E 19 82 106
E 19 83 100
E 19 84 88
E 19 86 99
E 19 88 99
E 19 93 97
E 19 94 96
E 19 97 94
E 19 118 99
E 19 119 96
E 19 123 109
E 19 124 95
E 19 126 98
E 19 127 101
E 19 129 91
E 19 133 94
E 19 142 89
E 19 147 98
E 19 153 98
E 19 154 107
E 20 27 101
E 20 44 106
E 20 45 95
E 20 46 101
E 20 50 99
E 20 59 91
E 20 60 109
E 20 63 103
E 20 65 96
E 20 66 99
E 20 67 92
E 20 70 100
E 20 79 97
E 20 84 100
E 20 88 87
E 20 89 107
E 20 90 97
E 20 93 104
E 20 94 111
E 20 97 96
E 20 99 95
E 20 104 107
E 20 108 101
E 20 111 109
E 20 114 99
E 20 117 98
E 20 124 94
E 20 125 101
E 20 127 90
E 20 130 100
E 20 145 88
E 20 151 94
E 20 160 102
E 21 23 103
E 21 29 105
E 21 31 98
E 21 36 107
E 21 40 106
E 21 45 96
E 21 53 99
E 21 56 106
E 21 58 104
E 21 66 96
E 21 73 112
E 21 85 91
E 21 86 101
E 21 90 101
E 21 95 91
E 21 99 105
E 21 102 103
E 21 105 106
E 21 110 102
E 21 112 102
E 21 115 96
E 21 128 102
E 21 133 103
E 21 134 102
E 21 135 92
E 21 136 103
E 21 139 102
E 21 143 100
E 21 153 101
E 21 156 100
E 21 159 88
E 21 160 96
E 22 27 99
E 22 31 102
E 22 50 97
E 22 54 91
E 22 56 104
E 22 61 98
E 22 64 103
E 22 65 99
E 22 66 92
E 22 68 98
E 22 86 96
E 22 88 103
E 22 93 107
E 22 98 90
E 22 102 102
E 22 109 98
E 22 128 104
E 22 133 99
E 22 147 99
E 22 154 98
E 22 159 96
E 22 160 96
E 23 24 103
E 23 26 95
E 23 35 107
E 23 36 96
E 23 40 95
E 23 44 103
E 23 46 103
E 23 59 96
E 23 63 101
E 23 64 101
E 23 68 104
E 23 78 89
E 23 79 93
E 23 82 96
E 23 94 92
E 23 100 99
E 23 113 93
E 23 118 99
E 23 119 97
E 23 120 107
E 23 122 103
E 23 124 99
E 23 126 97
E 23 132 95
E 23 137 101
E 23 140 96
E 23 151 105
E 23 152 97
E 23 153 102
E 23 158 110
E 23 160 103
E 24 25 97
E 24 31 101
E 24 40 96
E 24 43 100
E 24 44 100
E 24 55 99
E 24 60 112
E 24 69 94
E 24 75 99
E 24 86 108
E 24 88 94
E 24 96 96
E 24 115 97
E 24 121 93
E 24 130 104
E 24 131 102
E 24 137 100
E 24 143 108
E 24 149 95
E 24 151 90
E 24 155 108
E 25 27 97
E 25 37 100
E 25 38 97
E 25 40 101
E 25 43 111
E 25 45 101
E 25 53 100
E 25 54 94
E 25 61 104
E 25 68 97
E 25 71 104
E 25 72 96
E 25 76 109
E 25 86 88
E 25 91 107
E 25 98 112
E 25 101 98
E 25 112 102
E 25 123 100
E 25 128 92
E 25 132 99
E 25 136 100
E 25 137 104
E 25 139 107
E 25 149 89
E 25 156 97
E 25 158 96
E 25 159 99
E 26 31 93
E 26 33 91
E 26 36 100
E 26 37 96
E 26 38 99
E 26 39 96
E 26 45 105
E 26 48 103
E 26 83 95
E 26 85 108
E 26 90 104
E 26 92 97
E 26 94 95
E 26 108 104
E 26 111 97
E 26 112 92
E 26 114 93
E 26 122 105
E 26 123 99
E 26 125 94
E 26 130 90
E 26 135 108
E 26 136 103
E 26 139 111
E 26 143 89
E 26 148 99
E 26 153 95
E 26 154 108
E 26 159 98
E 27 32 108
E 27 36 96
E 27 42 98
E 27 45 98
E 27 48 102
E 27 50 105
E 27 51 88
E 27 54 101
E 27 60 96
E 27 70 102
E 27 73 102
E 27 74 104
E 27 76 102
E 27 79 98
E 27 87 95
E 27 90 104
E 27 93 99
E 27 109 100
E 27 110 99
E 27 116 102
E 27 119 102
E 27 122 102
E 27 127 94
E 27 133 105
E 27 136 94
E 27 139 100
E 27 149 101
E 27 151 111
E 27 153 100
E 27 155 98
E 27 157 90
E 28 30 98
E 28 34 100
E 28 42 96
E 28 43 95
E 28 46 95
E 28 51 96
E 28 63 99
E 28 66 104
E 28 73 93
E 28 84 94
E 28 85 97
E 28 88 102
E 28 90 101
E 28 91 98
E 28 92 101
E 28 96 99
E 28 104 106
E 28 113 100
E 28 118 107
E 28 122 100
E 28 125 95
E 28 127 101
E 28 130 99
E 28 140 94
E 28 154 96
E 29 31 102
E 29 32 103
E 29 42 100
E 29 43 95
E 29 47 96
E 29 53 102
E 29 65 102
E 29 67 106
E 29 76 88
E 29 87 92
E 29 94 89
E 29 95 99
E 29 96 98
E 29 104 99
E 29 105 104
E 29 108 97
E 29 110 102
E 29 111 95
E 29 114 105
E 29 127 97
E 29 134 108
E 29 136 99
E 29 137 95
E 29 158 98
E 30 32 100
E 30 33 98
E 30 37 99
E 30 40 96
E 30 49 98
E 30 52 105
E 30 56 98
E 30 58 100
E 30 62 100
E 30 66 101
E 30 82 100
E 30 92 93
E 30 96 105
E 30 99 107
E 30 101 106
E 30 102 105
E 30 105 93
E 30 113 104
E 30 115 101
E 30 146 102
E 30 151 100
E 30 158 97
E 31 38 103
E 31 40 102
E 31 52 88
E 31 57 102
E 31 58 99
E 31 59 102
E 31 60 103
E 31 62 104
E 31 66 101
E 31 68 101
E 31 69 94
E 31 77 104
E 31 80 101
E 31 84 91
E 31 87 102
E 31 89 109
E 31 91 94
E 31 99 96
E 31 109 108
E 31 111 100
E 31 112 99
E 31 114 100
E 31 122 93
E 31 125 102
E 31 136 95
E 31 139 99
E 31 141 99
E 31 144 100
E 31 148 101
E 31 154 108
E 31 155 107
E 31 159 100
E 32 42 96
E 32 52 102
E 32 58 98
E 32 63 101
E 32 67 105
E 32 77 98
E 32 91 104
E 32 92 105
E 32 98 91
E 32 101 98
E 32 104 94
E 32 106 99
E 32 110 93
E 32 114 91
E 32 116 106
E 32 119 97
E 32 121 101
E 32 127 95
E 32 136 97
E 32 140 102
E 32 147 102
E 32 151 103
E 32 153 102
E 32 154 104
E 33 35 98
E 33 40 99
E 33 41 108
E 33 50 96
E 33 51 97
E 33 61 103
E 33 64 89
E 33 65 98
E 33 69 99
E 33 71 104
E 33 78 106
E 33 80 97
E 33 81 106
E 33 82 104
E 33 83 107
E 33 97 98
E 33 98 91
E 33 99 106
E 33 101 106
E 33 127 106
E 33 128 100
E 33 129 98
E 33 134 94
E 33 138 104
E 33 139 105
E 33 154 100
E 33 156 102
E 33 160 98
E 34 37 98
E 34 48 105
E 34 56 104
E 34 65 100
E 34 79 95
E 34 84 104
E 34 89 100
E 34 95 98
E 34 98 103
E 34 100 94
E 34 101 105
E 34 102 101
E 34 108 98
E 34 110 85
E 34 128 109
E 34 136 92
E 34 137 102
E 34 148 100
E 34 149 96
E 34 151 108
E 34 152 103
E 35 41 88
E 35 43 107
E 35 45 100
E 35 50 103
E 35 61 99
E 35 67 103
E 35 69 101
E 35 72 91
E 35 73 106
E 35 78 98
E 35 114 91
E 35 115 95
E 35 116 112
E 35 120 100
E 35 123 103
E 35 128 103
E 35 129 94
E 35 131 103
E 35 135 100
E 35 140 105
E 35 150 100
E 35 154 101
E 35 159 96
E 36 37 103
E 36 38 92
E 36 39 99
E 36 40 98
E 36 49 103
E 36 52 96
E 36 56 101
E 36 57 95
E 36 66 98
E 36 72 91
E 36 80 96
E 36 86 99
E 36 102 96
E 36 107 91
E 36 111 97
E 36 115 103
E 36 118 102
E 36 119 96
E 36 120 99
E 36 122 100
E 36 126 101
E 36 132 103
E 36 145 105
E 36 149 103
E 37 45 104
E 37 47 108
E 37 52 110
E 37 61 97
E 37 69 98
E 37 80 106
E 37 85 100
E 37 86 95
E 37 87 108
E 37 95 105
E 37 98 102
E 37 102 98
E 37 110 105
E 37 111 93
E 37 128 100
E 37 129 102
E 37 137 92
E 37 146 96
E 37 152 104
E 37 156 91
E 38 45 95
E 38 48 98
E 38 59 102
E 38 61 105
E 38 62 104
E 38 73 93
E 38 79 91
E 38 80 99
E 38 82 99
E 38 85 98
E 38 90 96
E 38 92 104
E 38 94 100
E 38 99 97
E 38 103 91
E 38 104 97
E 38 105 106
E 38 107 103
E 38 111 91
E 38 114 103
E 38 121 98
E 38 126 99
E 38 129 99
E 38 132 99
E 38 133 104
E 38 137 97
E 38 140 105
E 38 152 99
E 38 155 107
E 39 46 95
E 39 58 101
E 39 65 98
E 39 68 92
E 39 77 105
E 39 81 100
E 39 85 102
E 39 102 95
E 39 116 98
E 39 117 100
E 39 118 107
E 39 121 98
E 39 127 100
E 39 128 92
E 39 130 96
E 39 135 100
E 39 136 106
E 39 143 96
E 39 149 100
E 39 156 112
E 39 158 105
E 40 42 96
E 40 44 104
E 40 49 106
E 40 52 104
E 40 59 98
E 40 60 93
E 40 74 103
E 40 82 109
E 40 87 94
E 40 89 95
E 40 97 95
E 40 100 94
E 40 106 94
E 40 111 103
E 40 114 100
E 40 119 99
E 40 133 101
E 40 143 104
E 40 151 89
E 40 153 102
E 41 46 102
E 41 47 113
E 41 55 99
E 41 57 103
E 41 58 100
E 41 59 100
E 41 86 91
E 41 87 94
E 41 96 99
E 41 102 99
E 41 106 97
E 41 108 94
E 41 115 101
E 41 120 106
E 41 137 105
E 41 138 97
E 41 141 94
E 41 148 98
E 41 156 96
E 41 159 95
E 42 46 105
E 42 56 104
E 42 59 93
E 42 60 102
E 42 61 95
E 42 70 101
E 42 74 95
E 42 79 100
E 42 85 106
E 42 87 97
E 42 88 93
E 42 92 99
E 42 94 98
E 42 100 104
E 42 108 96
E 42 109 104
E 42 125 97
E 42 134 95
E 42 140 101
E 42 142 101
E 42 146 99
E 42 147 101
E 42 153 100
E 42 154 110
E 42 159 96
E 43 62 90
E 43 73 98
E 43 75 89
E 43 81 92
E 43 82 97
E 43 88 95
E 43 90 95
E 43 93 97
E 43 95 94
E 43 98 99
E 43 100 101
E 43 113 102
E 43 118 95
E 43 120 101
E 43 122 99
E 43 123 91
E 43 124 93
E 43 128 104
E 43 134 94
E 43 138 105
E 43 141 98
E 43 144 100
E 43 145 99
E 43 154 98
E 44 54 103
E 44 66 98
E 44 68 102
E 44 73 92
E 44 74 93
E 44 77 98
E 44 96 91
E 44 102 97
E 44 104 97
E 44 107 97
E 44 112 94
E 44 119 93
E 44 120 98
E 44 131 98
E 44 133 96
E 44 136 93
E 44 142 102
E 44 145 97
E 44 148 103
E 44 150 89
E 44 159 107
E 45 50 100
E 45 54 108
E 45 56 106
E 45 62 97
E 45 66 100
E 45 76 97
E 45 88 97
E 45 99 100
E 45 109 97
E 45 114 93
E 45 116 102
E 45 120 94
E 45 122 102
E 45 124 97
E 45 125 100
E 45 132 102
E 45 139 97
E 45 140 96
E 45 141 104
E 45 145 96
E 45 148 93
E 45 157 94
E 46 59 100
E 46 71 103
E 46 76 109
E 46 78 100
E 46 82 99
E 46 83 95
E 46 84 100
E 46 92 101
E 46 96 96
E 46 97 98
E 46 101 100
E 46 109 94
E 46 113 99
E 46 114 103
E 46 115 99
E 46 120 109
E 46 137 91
E 46 139 96
E 46 144 104
E 46 151 99
E 46 152 98
E 46 156 98
E 47 49 90
E 47 55 100
E 47 77 90
E 47 89 101
E 47 94 96
E 47 96 102
E 47 107 98
E 47 109 104
E 47 111 94
E 47 114 99
E 47 115 99
E 47 116 93
E 47 119 92
E 47 123 104
E 47 127 112
E 47 134 102
E 47 135 97
E 47 136 93
E 47 137 98
E 47 140 101
E 47 143 88
E 47 147 97
E 47 152 103
E 47 153 95
E 47 154 102
E 47 158 94
E 48 59 96
E 48 60 100
E 48 62 95
E 48 64 101
E 48 65 95
E 48 68 98
E 48 70 95
E 48 73 101
E 48 78 95
E 48 81 102
E 48 84 106
E 48 89 96
E 48 90 97
E 48 94 96
E 48 102 101
E 48 107 105
E 48 112 98
E 48 116 103
E 48 123 100
E 48 141 104
E 48 149 102
E 48 155 100
E 49 57 101
E 49 63 97
E 49 65 102
E 49 66 94
E 49 69 96
E 49 71 100
E 49 83 102
E 49 87 88
E 49 88 90
E 49 94 99
E 49 97 96
E 49 104 104
E 49 110 95
E 49 112 96
E 49 120 104
E 49 124 95
E 49 128 98
E 49 129 101
E 49 142 102
E 49 158 101
E 50 51 100
E 50 55 105
E 50 56 106
E 50 60 90
E 50 69 103
E 50 71 114
E 50 83 109
E 50 84 93
E 50 85 96
E 50 87 95
E 50 95 104
E 50 113 99
E 50 114 105
E 50 115 106
E 50 119 95
E 50 121 96
E 50 125 94
E 50 129 98
E 50 135 108
E 50 144 100
E 50 148 91
E 50 150 100
E 50 155 105
E 50 156 98
E 51 52 91
E 51 53 100
E 51 57 101
E 51 58 103
E 51 64 98
E 51 65 101
E 51 68 84
E 51 71 103
E 51 73 99
E 51 75 96
E 51 82 92
E 51 93 103
E 51 97 100
E 51 98 95
E 51 105 99
E 51 111 102
E 51 112 105
E 51 119 104
E 51 130 98
E 51 133 95
E 51 134 105
E 51 145 91
E 51 146 100
E 51 154 97
E 52 57 101
E 52 59 108
E 52 64 105
E 52 70 104
E 52 77 109
E 52 87 96
E 52 94 100
E 52 110 97
E 52 113 101
E 52 114 112
E 52 116 110
E 52 122 107
E 52 134 99
E 52 135 113
E 52 138 107
E 52 140 97
E 52 143 105
E 52 160 102
E 53 54 98
E 53 58 102
E 53 66 86
E 53 68 97
E 53 69 94
E 53 80 97
E 53 89 106
E 53 90 103
E 53 92 102
E 53 93 100
E 53 96 99
E 53 97 88
E 53 98 92
E 53 99 106
E 53 105 100
E 53 106 107
E 53 107 104
E 53 108 86
E 53 109 100
E 53 114 91
E 53 120 84
E 53 124 104
E 53 133 109
E 53 134 103
E 53 135 96
E 53 142 102
E 53 146 102
E 53 150 104
E 53 153 105
E 53 157 103
E 53 158 96
E 54 75 102
E 54 88 102
E 54 94 109
E 54 106 99
E 54 107 100
E 54 108 100
E 54 122 104
E 54 124 101
E 54 125 95
E 54 126 96
E 54 132 101
E 54 146 100
E 54 154 102
E 55 56 100
E 55 60 98
E 55 67 100
E 55 68 96
E 55 69 90
E 55 76 101
E 55 77 102
E 55 83 101
E 55 85 96
E 55 86 96
E 55 90 103
E 55 92 101
E 55 99 94
E 55 109 109
E 55 110 105
E 55 112 99
E 55 117 96
E 55 126 102
E 55 135 101
E 55 136 103
E 55 137 94
E 55 147 99
E 55 148 107
E 55 151 97
E 55 156 103
E 56 63 98
E 56 73 99
E 56 79 101
E 56 80 104
E 56 82 103
E 56 89 109
E 56 99 99
E 56 103 101
E 56 104 105
E 56 105 92
E 56 112 102
E 56 133 86
E 56 147 92
E 56 159 101
E 57 70 106
E 57 74 101
E 57 76 97
E 57 94 103
E 57 103 101
E 57 104 88
E 57 107 103
E 57 113 106
E 57 117 103
E 57 121 105
E 57 131 106
E 57 132 94
E 57 134 97
E 57 135 98
E 57 136 96
E 57 137 97
E 57 139 98
E 57 141 96
E 57 144 99
E 57 151 101
E 57 153 99
E 57 155 101
E 58 59 102
E 58 67 98
E 58 89 96
E 58 92 101
E 58 94 98
E 58 99 92
E 58 106 90
E 58 111 96
E 58 113 103
E 58 114 96
E 58 119 103
E 58 120 97
E 58 126 100
E 58 145 94
E 58 147 96
E 58 152 102
E 58 153 110
E 58 154 100
E 58 157 96
E 59 60 89
E 59 75 95
E 59 79 100
E 59 84 99
E 59 86 104
E 59 87 105
E 59 88 99
E 59 90 112
E 59 97 95
E 59 100 90
E 59 112 98
E 59 119 96
E 59 120 97
E 59 131 102
E 59 133 105
E 59 135 100
E 59 146 96
E 59 150 104
E 59 151 93
E 59 155 100
E 59 158 97
E 60 62 101
E 60 68 100
E 60 69 104
E 60 73 95
E 60 91 94
E 60 99 96
E 60 110 101
E 60 114 102
E 60 118 101
E 60 130 103
E 60 135 106
E 60 140 107
E 60 148 105
E 60 151 108
E 60 160 88
E 61 65 93
E 61 73 106
E 61 77 99
E 61 79 101
E 61 85 100
E 61 86 101
E 61 100 100
E 61 103 93
E 61 109 94
E 61 114 101
E 61 117 98
E 61 120 102
E 61 127 91
E 61 128 86
E 61 130 94
E 61 132 94
E 61 133 100
E 61 141 100
E 61 142 97
E 61 148 107
E 61 160 103
E 62 65 96
E 62 84 96
E 62 89 101
E 62 92 96
E 62 100 104
E 62 101 114
E 62 104 89
E 62 106 104
E 62 110 99
E 62 123 108
E 62 126 101
E 62 133 108
E 62 134 94
E 62 139 102
E 62 141 105
E 62 143 96
E 62 148 99
E 62 151 110
E 62 156 89
E 62 158 103
E 63 69 91
E 63 75 90
E 63 85 102
E 63 90 97
E 63 91 97
E 63 96 99
E 63 107 98
E 63 116 95
E 63 121 97
E 63 130 99
E 63 146 107
E 63 147 109
E 63 153 99
E 63 157 102
E 63 158 105
E 63 160 96
E 64 67 100
E 64 71 109
E 64 81 99
E 64 82 93
E 64 89 110
E 64 99 99
E 64 101 104
E 64 106 104
E 64 108 101
E 64 110 100
E 64 117 91
E 64 120 102
E 64 125 88
E 64 131 101
E 64 139 100
E 64 152 103
E 64 153 106
E 64 157 104
E 64 159 102
E 65 70 103
E 65 71 92
E 65 79 103
E 65 83 95
E 65 87 100
E 65 90 104
E 65 97 96
E 65 103 107
E 65 107 100
E 65 111 101
E 65 118 104
E 65 127 100
E 65 130 103
E 65 132 93
E 65 136 93
E 65 142 102
E 65 144 103
E 65 149 92
E 65 155 100
E 65 158 106
E 66 70 96
E 66 71 100
E 66 81 94
E 66 86 103
E 66 87 102
E 66 89 98
E 66 94 98
E 66 102 99
E 66 111 99
E 66 114 101
E 66 117 105
E 66 125 99
E 66 128 107
E 66 138 99
E 66 139 107
E 66 147 105
E 66 148 96
E 67 68 96
E 67 86 91
E 67 88 97
E 67 102 105
E 67 113 98
E 67 124 101
E 67 125 105
E 67 130 100
E 67 133 101
E 67 134 104
E 67 138 96
E 67 150 91
E 67 153 98
E 67 154 96
E 67 158 103
E 68 69 102
E 68 72 99
E 68 77 96
E 68 79 93
E 68 87 105
E 68 95 99
E 68 97 102
E 68 101 92
E 68 111 105
E 68 122 102
E 68 125 98
E 68 129 106
E 68 130 93
E 68 134 104
E 68 135 97
E 68 150 97
E 69 80 97
E 69 81 97
E 69 87 94
E 69 94 89
E 69 100 87
E 69 108 100
E 69 112 98
E 69 118 102
E 69 121 97
E 69 125 93
E 69 133 102
E 69 143 98
E 69 155 101
E 69 158 98
E 70 77 90
E 70 78 96
E 70 84 82
E 70 92 96
E 70 94 89
E 70 99 94
E 70 101 94
E 70 102 103
E 70 107 96
E 70 111 101
E 70 117 101
E 70 118 103
E 70 126 94
E 70 142 100
E 70 146 102
E 70 155 91
E 70 157 95
E 71 82 109
E 71 92 106
E 71 94 104
E 71 98 95
E 71 99 100
E 71 103 101
E 71 106 101
E 71 116 107
E 71 119 107
E 71 133 101
E 71 134 102
E 71 144 102
E 71 154 102
E 72 74 106
E 72 75 104
E 72 81 105
E 72 88 104
E 72 91 102
E 72 94 104
E 72 102 103
E 72 105 107
E 72 108 95
E 72 110 95
E 72 114 107
E 72 117 101
E 72 126 101
E 72 133 92
E 72 134 110
E 72 139 98
E 72 141 103
E 72 147 97
E 72 150 111
E 72 151 98
E 72 160 96
E 73 76 93
E 73 80 98
E 73 85 99
E 73 86 108
E 73 89 89
E 73 91 102
E 73 93 99
E 73 96 92
E 73 97 102
E 73 103 95
E 73 106 99
E 73 112 102
E 73 127 97
E 73 128 99
E 73 135 104
E 73 137 101
E 74 82 99
E 74 91 98
E 74 97 100
E 74 99 101
E 74 104 97
E 74 112 91
E 74 114 102
E 74 116 103
E 74 121 104
E 74 122 95
E 74 125 98
E 74 128 106
E 74 131 95
E 74 136 99
E 74 141 99
E 74 143 92
E 74 154 91
E 74 157 105
E 75 87 93
E 75 93 94
E 75 104 103
E 75 106 102
E 75 109 91
E 75 115 103
E 75 119 101
E 75 121 98
E 75 122 93
E 75 127 92
E 75 130 103
E 75 132 89
E 75 139 95
E 75 144 108
E 75 149 97
E 75 150 108
E 75 151 104
E 75 152 98
E 75 154 96
E 75 156 100
E 75 159 101
E 76 79 94
E 76 80 109
E 76 84 109
E 76 85 102
E 76 89 108
E 76 93 103
E 76 95 103
E 76 97 97
E 76 100 100
E 76 103 94
E 76 107 100
E 76 110 91
E 76 112 101
E 76 120 88
E 76 121 100
E 76 128 98
E 76 137 96
E 76 138 94
E 76 144 102
E 76 153 101
E 76 154 98
E 77 82 100
E 77 90 101
E 77 106 93
E 77 112 93
E 77 115 89
E 77 119 101
E 77 132 104
E 77 141 98
E 77 144 106
E 77 148 97
E 77 149 98
E 77 154 116
E 77 159 93
E 78 82 110
E 78 88 112
E 78 89 85
E 78 90 99
E 78 102 111
E 78 106 103
E 78 112 97
E 78 118 101
E 78 131 105
E 78 132 103
E 78 134 101
E 78 149 100
E 78 151 110
E 78 160 104
E 79 80 103
E 79 84 102
E 79 85 107
E 79 86 96
E 79 87 107
E 79 88 94
E 79 99 94
E 79 103 100
E 79 104 103
E 79 132 106
E 79 133 95
E 79 137 102
E 79 138 89
E 79 141 104
E 79 149 95
E 79 152 97
E 79 154 99
E 79 159 102
E 80 84 92
E 80 85 103
E 80 87 102
E 80 88 101
E 80 91 105
E 80 93 98
E 80 98 97
E 80 102 97
E 80 103 102
E 80 112 99
E 80 116 96
E 80 119 90
E 80 127 100
E 80 130 97
E 80 131 101
E 80 138 97
E 80 141 99
E 80 146 106
E 80 157 96
E 80 160 98
E 81 87 108
E 81 90 99
E 81 93 83
E 81 95 98
E 81 97 103
E 81 101 89
E 81 113 103
E 81 114 95
E 81 117 95
E 81 123 99
E 81 124 111
E 81 125 89
E 81 133 89
E 81 135 95
E 81 136 106
E 81 151 90
E 81 155 105
E 81 160 100
E 82 88 94
E 82 93 100
E 82 94 98
E 82 95 105
E 82 105 103
E 82 121 95
E 82 131 93
E 82 132 107
E 82 140 99
E 82 144 97
E 82 151 103
E 82 154 104
E 82 158 102
E 83 87 104
E 83 94 100
E 83 95 98
E 83 106 101
E 83 121 105
E 83 122 90
E 83 124 104
E 83 127 97
E 83 132 97
E 83 141 103
E 83 150 104
E 84 88 99
E 84 90 97
E 84 92 92
E 84 94 99
E 84 97 92
E 84 103 108
E 84 104 104
E 84 105 93
E 84 106 93
E 84 112 99
E 84 115 97
E 84 123 109
E 84 130 101
E 84 135 103
E 84 144 103
E 84 148 94
E 84 158 101
E 85 90 93
E 85 91 97
E 85 93 97
E 85 94 93
E 85 99 98
E 85 100 92
E 85 102 95
E 85 103 89
E 85 105 111
E 85 113 94
E 85 115 98
E 85 121 102
E 85 123 96
E 85 124 101
E 85 145 92
E 85 153 98
E 85 159 104
E 86 90 94
E 86 94 98
E 86 96 91
E 86 101 94
E 86 106 91
E 86 116 105
E 86 122 103
E 86 124 100
E 86 125 107
E 86 128 92
E 86 141 103
E 86 151 102
E 86 152 101
E 87 90 107
E 87 100 105
E 87 101 103
E 87 103 89
E 87 116 98
E 87 118 107
E 87 119 96
E 87 123 107
E 87 124 102
E 87 132 100
E 87 134 103
E 87 137 105
E 87 147 100
E 87 151 91
E 87 158 99
E 87 159 98
E 88 115 101
E 88 116 93
E 88 119 103
E 88 122 94
E 88 126 108
E 88 131 94
E 88 132 107
E 88 134 103
E 88 135 105
E 88 145 92
E 88 150 82
E 88 158 97
E 89 90 89
E 89 91 97
E 89 92 104
E 89 98 100
E 89 103 97
E 89 112 96
E 89 117 94
E 89 130 95
E 89 135 94
E 89 140 107
E 89 154 103
E 90 96 99
E 90 98 104
E 90 109 98
E 90 110 97
E 90 113 102
E 90 131 104
E 90 133 92
E 90 137 109
E 90 138 112
E 90 141 98
E 90 151 100
E 90 159 99
E 90 160 106
E 91 93 95
E 91 100 96
E 91 110 99
E 91 119 90
E 91 126 99
E 91 133 92
E 91 143 99
E 91 149 100
E 91 151 107
E 91 152 100
E 91 154 104
E 91 158 103
E 92 93 104
E 92 98 94
E 92 99 103
E 92 100 90
E 92 107 91
E 92 118 104
E 92 121 100
E 92 133 101
E 92 140 98
E 92 146 97
E 92 149 99
E 92 154 99
E 92 155 107
E 93 96 95
E 93 103 105
E 93 110 103
E 93 111 103
E 93 113 94
E 93 125 99
E 93 133 101
E 93 136 99
E 93 152 97
E 93 155 112
E 93 157 95
E 94 97 96
E 94 98 98
E 94 100 99
E 94 104 101
E 94 106 96
E 94 110 94
E 94 111 103
E 94 115 95
E 94 117 101
E 94 133 105
E 94 143 97
E 94 151 104
E 95 102 101
E 95 105 99
E 95 112 97
E 95 122 100
E 95 127 103
E 95 130 105
E 95 140 102
E 95 143 99
E 95 147 105
E 95 150 109
E 96 97 91
E 96 99 98
E 96 100 104
E 96 108 99
E 96 125 98
E 96 131 106
E 96 132 106
E 96 138 95
E 96 140 100
E 96 141 100
E 96 145 83
E 96 154 99
E 96 156 96
E 96 160 99
E 97 98 106
E 97 99 107
E 97 101 97
E 97 116 92
E 97 118 102
E 97 134 105
E 97 135 92
E 97 138 106
E 97 140 97
E 97 141 100
E 97 142 91
E 97 144 103
E 97 146 100
E 97 149 111
E 97 150 100
E 97 151 97
E 97 155 108
E 97 158 99
E 97 159 107
E 98 102 99
E 98 105 103
E 98 106 98
E 98 112 101
E 98 115 106
E 98 121 90
E 98 126 101
E 98 131 105
E 98 134 100
E 98 135 93
E 98 140 93
E 98 141 101
E 98 142 96
E 98 148 95
E 98 153 97
E 98 160 94
E 99 101 97
E 99 110 101
E 99 111 106
E 99 115 93
E 99 124 104
E 99 128 99
E 99 133 102
E 99 134 102
E 99 150 91
E 99 157 105
E 100 107 94
E 100 108 108
E 100 113 95
E 100 118 98
E 100 121 97
E 100 126 105
E 100 131 103
E 100 133 99
E 101 105 106
E 101 106 99
E 101 114 100
E 101 115 97
E 101 117 98
E 101 119 102
E 101 131 99
E 101 140 103
E 101 145 102
E 101 148 98
E 101 156 105
E 101 158 98
E 102 109 100
E 102 114 100
E 102 117 105
E 102 118 106
E 102 124 97
E 102 127 106
E 102 130 104
E 102 134 103
E 102 145 99
E 102 147 90
E 102 150 98
E 102 159 101
E 102 160 98
E 103 114 108
E 103 119 103
E 103 124 101
E 103 125 102
E 103 129 113
E 103 131 99
E 103 133 101
E 103 142 105
E 103 152 95
E 103 155 119
E 103 156 100
E 103 159 98
E 104 106 102
E 104 110 98
E 104 124 96
E 104 129 110
E 104 130 91
E 104 131 95
E 104 132 102
E 104 140 91
E 104 145 101
E 105 111 97
E 105 115 96
E 105 116 103
E 105 123 102
E 105 127 102
E 105 136 93
E 105 139 102
E 105 140 111
E 105 142 105
E 105 146 98
E 105 148 94
E 105 149 112
E 105 157 97
E 106 114 96
E 106 118 92
E 106 124 100
E 106 131 96
E 106 147 93
E 106 152 99
E 106 153 107
E 107 114 101
E 107 132 90
E 107 136 100
E 107 139 90
E 107 142 92
E 107 150 97
E 107 155 105
E 107 160 95
E 108 111 95
E 108 113 99
E 108 123 104
E 108 129 94
E 108 134 93
E 108 140 105
E 108 148 107
E 108 149 101
E 109 114 92
E 109 119 105
E 109 121 104
E 109 122 108
E 109 131 101
E 109 136 91
E 109 139 95
E 109 144 104
E 109 146 98
E 109 152 102
E 109 153 95
E 109 154 104
E 109 158 101
E 110 113 91
E 110 115 105
E 110 122 95
E 110 126 97
E 110 129 98
E 110 131 103
E 110 132 96
E 110 133 103
E 110 134 109
E 110 135 97
E 110 145 98
E 110 147 91
E 110 149 105
E 111 113 101
E 111 118 96
E 111 122 99
E 111 126 96
E 111 129 100
E 111 137 93
E 111 143 98
E 111 145 95
E 111 153 103
E 111 160 92
E 112 113 102
E 112 116 88
E 112 132 100
E 112 151 94
E 112 154 103
E 113 114 93
E 113 122 106
E 113 131 101
E 113 136 95
E 113 137 96
E 113 140 104
E 113 143 101
E 113 144 97
E 113 145 102
E 113 146 97
E 113 147 96
E 113 148 93
E 113 151 95
E 113 157 91
E 114 117 99
E 114 120 109
E 114 122 98
E 114 131 102
E 114 135 109
E 114 136 100
E 114 138 100
E 114 142 104
E 114 146 100
E 114 147 98
E 114 155 107
E 114 156 98
E 115 125 102
E 115 133 99
E 115 140 105
E 115 157 106
E 116 119 105
E 116 130 99
E 116 131 97
E 116 138 95
E 116 160 95
E 117 120 100
E 117 138 100
E 117 142 99
E 117 144 99
E 117 150 95
E 117 155 98
E 117 158 103
E 118 127 103
E 118 131 102
E 118 135 106
E 118 138 106
E 118 146 97
E 118 149 109
E 118 150 99
E 118 154 100
E 118 159 101
E 119 126 100
E 119 127 94
E 119 128 101
E 119 133 96
E 119 134 98
E 119 139 104
E 119 141 103
E 119 143 104
E 119 149 106
E 119 152 99
E 119 153 103
E 119 156 98
E 120 122 100
E 120 124 99
E 120 133 91
E 120 140 92
E 120 141 102
E 120 142 105
E 120 147 90
E 120 149 103
E 120 152 100
E 121 126 95
E 121 128 95
E 121 141 94
E 121 142 99
E 121 148 102
E 121 150 99
E 121 151 95
E 121 152 96
E 121 155 94
E 121 157 87
E 121 159 107
E 122 136 105
E 122 142 100
E 122 150 100
E 122 153 94
E 122 155 107
E 122 157 91
E 123 128 101
E 123 129 91
E 123 136 97
E 123 147 104
E 123 149 99
E 123 154 87
E 124 128 96
E 124 131 101
E 124 135 107
E 124 136 97
E 124 143 100
E 124 144 107
E 124 147 105
E 124 150 102
E 124 151 99
E 125 127 89
E 125 130 101
E 125 142 104
E 125 143 99
E 126 128 95
E 126 140 112
E 126 149 97
E 126 151 101
E 126 153 98
E 126 154 99
E 127 131 95
E 127 132 101
E 127 134 97
E 127 135 101
E 127 139 95
E 127 140 89
E 127 143 96
E 127 144 105
E 127 145 105
E 127 148 96
E 127 151 94
E 127 158 101
E 128 131 105
E 128 138 97
E 128 141 95
E 128 142 97
E 128 150 102
E 128 155 102
E 128 158 105
E 129 132 98
E 129 133 100
E 129 134 104
E 129 135 101
E 129 136 94
E 129 141 99
E 129 146 104
E 129 148 96
E 129 149 103
E 129 152 98
E 130 134 106
E 130 136 97
E 130 137 92
E 130 138 98
E 130 141 99
E 130 145 109
E 130 159 102
E 131 133 92
E 131 137 104
E 131 139 104
E 131 147 107
E 131 154 91
E 131 157 95
E 131 158 97
E 131 159 95
E 132 136 102
E 132 145 95
E 132 157 106
E 132 160 101
E 133 135 97
E 133 139 102
E 133 152 106
E 133 158 100
E 133 160 96
E 134 135 100
E 134 142 99
E 134 150 99
E 134 151 93
E 134 152 96
E 134 154 99
E 134 158 100
E 134 160 100
E 135 137 96
E 135 150 101
E 135 151 102
E 135 157 98
E 135 158 100
E 136 137 95
E 136 141 93
E 136 143 95
E 136 150 97
E 136 152 92
E 136 160 94
E 137 144 93
E 137 151 100
E 137 153 96
E 138 144 108
E 138 146 91
E 138 147 99
E 138 148 110
E 138 150 102
E 138 155 98
E 138 158 102
E 138 159 86
E 138 160 99
E 139 141 98
E 139 142 101
E 139 144 105
E 139 159 99
E 139 160 98
E 140 143 99
E 140 144 104
E 140 145 95
E 140 146 107
E 140 147 104
E 140 154 93
E 140 159 100
E 141 144 100
E 141 150 101
E 141 154 97
E 142 143 102
E 142 147 104
E 142 150 93
E 142 157 97
E 142 158 97
E 143 150 98
E 143 152 103
E 143 157 102
E 143 158 104
E 144 148 104
E 144 158 90
E 145 150 87
E 145 153 108
E 145 157 94
E 146 156 100
E 146 160 96
E 147 150 104
E 147 159 96
E 148 156 93
E 149 155 97
E 150 155 108
E 150 158 99
E 151 156 95
E 151 157 109
E 152 156 99
E 154 156 97
E 154 157 94
E 154 158 106
E 154 159 92
E 155 160 101
E 156 157 91
E 156 160 96
E 157 160 98
E 159 160 100
END

SECTION Terminals
Terminals 7
T 1
T 2
T 3
T 4
T 5
T 6
T 7
END

EOF
